\ENCODING=ISO-8859-1
\Problem name: ilog.cplex

Minimize
 obj1: 93523 x1 + 90095 x2 + 97461 x3 + 106574 x4 + 95117 x5 + 91690 x6
       + 94496 x7 + 104260 x8 + 99903 x9 + 91262 x10 + 90293 x11 + 94903 x12
       + 94309 x13 + 93122 x14 + 94024 x15 + 91622 x16 + 94565 x17 + 93692 x18
       + 105723 x19 + 91197 x20 + 99386 x21 + 103443 x22 + 93442 x23
       + 104813 x24 + 109456 x25 + 105002 x26 + 103706 x27 + 92669 x28
       + 95532 x29 + 102780 x30 + 104827 x31 + 105937 x32 + 93884 x33
       + 103411 x34 + 104850 x35 + 101323 x36 + 100305 x37 + 90842 x38
       + 93728 x39 + 105806 x40 + 102078 x41 + 105094 x42 + 92805 x43
       + 92168 x44 + 91042 x45 + 99496 x46 + 93740 x47 + 99488 x48 + 100303 x49
       + 97640 x50 + 98356 x51 + 104138 x52 + 105033 x53 + 95472 x54
       + 104657 x55 + 105945 x56 + 90528 x57 + 96850 x58 + 100939 x59
       + 106255 x60 + 94209 x61 + 92225 x62 + 91625 x63 + 98288 x64
       + 108863 x65 + 102496 x66 + 103983 x67 + 99313 x68 + 109060 x69
       + 90415 x70 + 108072 x71 + 99850 x72 + 98854 x73 + 104467 x74
       + 97494 x75 + 101415 x76 + 103130 x77 + 99960 x78 + 106143 x79
       + 109825 x80 + 97462 x81 + 97542 x82 + 108109 x83 + 106399 x84
       + 91167 x85 + 95009 x86 + 100645 x87 + 100350 x88 + 108767 x89
       + 99539 x90 + 103344 x91 + 92250 x92 + 96154 x93 + 94384 x94
       + 100647 x95 + 90653 x96 + 109524 x97 + 96562 x98 + 109317 x99
       + 101787 x100 + 95699 x101 + 99655 x102 + 94316 x103 + 99508 x104
       + 101308 x105 + 109043 x106 + 91927 x107 + 100850 x108 + 97522 x109
       + 98993 x110 + 94963 x111 + 97154 x112 + 107923 x113 + 101272 x114
       + 96912 x115 + 93223 x116 + 92470 x117 + 96624 x118 + 103945 x119
       + 98834 x120 + 101251 x121 + 105609 x122 + 105883 x123 + 90767 x124
       + 92538 x125 + 104142 x126 + 96257 x127 + 91847 x128 + 100200 x129
       + 105581 x130 + 103816 x131 + 107725 x132 + 104022 x133 + 109148 x134
       + 96594 x135 + 102939 x136 + 90534 x137 + 103099 x138 + 94056 x139
       + 99209 x140 + 91672 x141 + 90327 x142 + 92848 x143 + 100974 x144
       + 93922 x145 + 93877 x146 + 97342 x147 + 95868 x148 + 101558 x149
       + 100423 x150 + 90797 x151 + 92726 x152 + 90732 x153 + 100856 x154
       + 108446 x155 + 95648 x156 + 103087 x157 + 101354 x158 + 109040 x159
       + 92337 x160 + 93313 x161 + 97747 x162 + 97433 x163 + 106251 x164
       + 101156 x165 + 99551 x166 + 91814 x167 + 106954 x168 + 91040 x169
       + 109644 x170 + 99101 x171 + 102516 x172 + 108290 x173 + 108849 x174
       + 100508 x175 + 104324 x176 + 103111 x177 + 92934 x178 + 91707 x179
       + 109393 x180 + 102201 x181 + 97379 x182 + 98096 x183 + 107201 x184
       + 96834 x185 + 92461 x186 + 92459 x187 + 95535 x188 + 105768 x189
       + 104044 x190 + 99628 x191 + 103037 x192 + 101536 x193 + 93924 x194
       + 100786 x195 + 104864 x196 + 99453 x197 + 97647 x198 + 108622 x199
       + 102290 x200 + 97107 x201 + 108270 x202 + 103146 x203 + 103207 x204
       + 107299 x205 + 103367 x206 + 95346 x207 + 100391 x208 + 101755 x209
       + 90905 x210 + 90709 x211 + 100813 x212 + 98683 x213 + 96987 x214
       + 102756 x215 + 104888 x216 + 94883 x217 + 103545 x218 + 108291 x219
       + 95275 x220 + 91209 x221 + 96627 x222 + 93590 x223 + 97296 x224
       + 93306 x225 + 96004 x226 + 103432 x227 + 105142 x228 + 96094 x229
       + 90782 x230 + 100743 x231 + 90745 x232 + 105514 x233 + 102732 x234
       + 104978 x235 + 97046 x236 + 91676 x237 + 96769 x238 + 103333 x239
       + 92901 x240 + 103824 x241 + 96262 x242 + 100422 x243 + 92947 x244
       + 109430 x245 + 99813 x246 + 109311 x247 + 102523 x248 + 107240 x249
       + 95701 x250 + 90325 x251 + 106629 x252 + 107512 x253 + 109429 x254
       + 107825 x255 + 100325 x256 + 107447 x257 + 107056 x258 + 99455 x259
       + 91160 x260 + 105790 x261 + 91301 x262 + 103352 x263 + 96970 x264
       + 97655 x265 + 98381 x266 + 97998 x267 + 104591 x268 + 95322 x269
       + 102631 x270 + 95999 x271 + 97213 x272 + 107962 x273 + 95389 x274
       + 108722 x275 + 100472 x276 + 104627 x277 + 102173 x278 + 96860 x279
       + 98127 x280 + 109332 x281 + 98781 x282 + 107211 x283 + 101639 x284
       + 100091 x285 + 90733 x286 + 101723 x287 + 97040 x288 + 97336 x289
       + 99827 x290 + 91292 x291 + 97207 x292 + 91417 x293 + 96638 x294
       + 93876 x295 + 97949 x296 + 93735 x297 + 108407 x298 + 104115 x299
       + 92335 x300 + 99189 x301 + 102559 x302 + 91994 x303 + 100992 x304
       + 108974 x305 + 92333 x306 + 91682 x307 + 101687 x308 + 103053 x309
       + 94524 x310 + 97557 x311 + 95038 x312 + 100792 x313 + 102436 x314
       + 102045 x315 + 90261 x316 + 93078 x317 + 98601 x318 + 93324 x319
       + 101725 x320 + 90482 x321 + 98530 x322 + 91218 x323 + 97320 x324
       + 109680 x325 + 104579 x326 + 92370 x327 + 107398 x328 + 102662 x329
       + 106389 x330 + 93061 x331 + 98737 x332 + 99863 x333 + 105440 x334
       + 104966 x335 + 91857 x336 + 90561 x337 + 93039 x338 + 101637 x339
       + 94602 x340 + 101687 x341 + 93380 x342 + 91659 x343 + 100062 x344
       + 99700 x345 + 96346 x346 + 108196 x347 + 92710 x348 + 109210 x349
       + 108299 x350 + 103368 x351 + 106190 x352 + 108180 x353 + 108603 x354
       + 102595 x355 + 105053 x356 + 93166 x357 + 96914 x358 + 103794 x359
       + 108765 x360 + 106771 x361 + 101142 x362 + 91082 x363 + 106117 x364
       + 103583 x365 + 107590 x366 + 109801 x367 + 108195 x368 + 104482 x369
       + 93773 x370 + 99870 x371 + 102476 x372 + 107376 x373 + 92278 x374
       + 98658 x375 + 91694 x376 + 101009 x377 + 102972 x378 + 93019 x379
       + 94271 x380 + 96037 x381 + 102162 x382 + 99402 x383 + 93078 x384
       + 109641 x385 + 102575 x386 + 100820 x387 + 104959 x388 + 102617 x389
       + 109041 x390 + 109914 x391 + 104716 x392 + 91164 x393 + 91310 x394
       + 98505 x395 + 94145 x396 + 99553 x397 + 97651 x398 + 95727 x399
       + 99232 x400 + 106766 x401 + 106241 x402 + 100603 x403 + 106892 x404
       + 95402 x405 + 90721 x406 + 109148 x407 + 90152 x408 + 95573 x409
       + 106452 x410 + 104149 x411 + 94229 x412 + 107713 x413 + 95782 x414
       + 92604 x415 + 105444 x416 + 98865 x417 + 100658 x418 + 97968 x419
       + 91291 x420 + 104019 x421 + 94964 x422 + 108023 x423 + 95039 x424
       + 100443 x425 + 103348 x426 + 107177 x427 + 93375 x428 + 100763 x429
       + 96180 x430 + 109811 x431 + 92980 x432 + 103711 x433 + 100417 x434
       + 109783 x435 + 109896 x436 + 90212 x437 + 96986 x438 + 105261 x439
       + 94164 x440 + 96903 x441 + 106701 x442 + 107757 x443 + 91464 x444
       + 99155 x445 + 98782 x446 + 99591 x447 + 93327 x448 + 91369 x449
       + 108737 x450 + 105648 x451 + 106294 x452 + 105100 x453 + 99892 x454
       + 102831 x455 + 90061 x456 + 99144 x457 + 108374 x458 + 100410 x459
       + 103498 x460 + 98952 x461 + 106963 x462 + 103498 x463 + 107819 x464
       + 103489 x465 + 107723 x466 + 95488 x467 + 102059 x468 + 107859 x469
       + 108002 x470 + 102379 x471 + 106647 x472 + 97639 x473 + 103621 x474
       + 101129 x475 + 96067 x476 + 94520 x477 + 99444 x478 + 102677 x479
       + 95949 x480 + 101749 x481 + 108993 x482 + 98589 x483 + 91478 x484
       + 103952 x485 + 106666 x486 + 99225 x487 + 91263 x488 + 92670 x489
       + 103644 x490 + 90841 x491 + 93585 x492 + 96298 x493 + 101699 x494
       + 99242 x495 + 90465 x496 + 91108 x497 + 97913 x498 + 108400 x499
       + 230245 x500 + 384762 x501 + 376535 x502 + 362787 x503 + 428769 x504
       + 425329 x505 + 368448 x506 + 404749 x507 + 396658 x508 + 401406 x509
       + 364263 x510 + 418700 x511 + 397358 x512 + 380607 x513 + 407687 x514
       + 422494 x515 + 419421 x516 + 407491 x517 + 381178 x518 + 401533 x519
       + 424750 x520 + 365296 x521 + 364090 x522 + 419576 x523 + 397988 x524
       + 364774 x525 + 399446 x526 + 381259 x527 + 409711 x528 + 405769 x529
       + 404752 x530 + 373270 x531 + 399886 x532 + 401645 x533 + 391137 x534
       + 429305 x535 + 360540 x536 + 368630 x537 + 411409 x538 + 409678 x539
       + 436742 x540 + 381573 x541 + 421439 x542 + 379609 x543 + 372530 x544
       + 384591 x545 + 430631 x546 + 370960 x547 + 383516 x548 + 399522 x549
       + 605801 x550
Subject To
 c1:   - x2 + x6 - x13 - x22 - x28 - x29 + x44 - x48  = 0
 c2:   - x52 + x56 - x63 - x72 - x78 - x79 + x94 - x98  = 0
 c3:   - x102 + x106 - x113 - x122 - x128 - x129 + x144 - x148  = 0
 c4:   - x152 + x156 - x163 - x172 - x178 - x179 + x194 - x198  = 0
 c5:   - x202 + x206 - x213 - x222 - x228 - x229 + x244 - x248  = 0
 c6:   - x252 + x256 - x263 - x272 - x278 - x279 + x294 - x298  = 0
 c7:   - x302 + x306 - x313 - x322 - x328 - x329 + x344 - x348  = 0
 c8:   - x352 + x356 - x363 - x372 - x378 - x379 + x394 - x398  = 0
 c9:   - x402 + x406 - x413 - x422 - x428 - x429 + x444 - x448  = 0
 c10:  - x452 + x456 - x463 - x472 - x478 - x479 + x494 - x498  = 0
 c11:  - x5 - x7 + x13 - x14 + x17 + x18 + x21 + x25 - x27 - x38 + x49 - x50
        = -1
 c12:  - x55 - x57 + x63 - x64 + x67 + x68 + x71 + x75 - x77 - x88 + x99 - x100
        = 0
 c13:  - x105 - x107 + x113 - x114 + x117 + x118 + x121 + x125 - x127 - x138
       + x149 - x150  = 0
 c14:  - x155 - x157 + x163 - x164 + x167 + x168 + x171 + x175 - x177 - x188
       + x199 - x200  = 0
 c15:  - x205 - x207 + x213 - x214 + x217 + x218 + x221 + x225 - x227 - x238
       + x249 - x250  = -1
 c16:  - x255 - x257 + x263 - x264 + x267 + x268 + x271 + x275 - x277 - x288
       + x299 - x300  = 0
 c17:  - x305 - x307 + x313 - x314 + x317 + x318 + x321 + x325 - x327 - x338
       + x349 - x350  = 0
 c18:  - x355 - x357 + x363 - x364 + x367 + x368 + x371 + x375 - x377 - x388
       + x399 - x400  = 0
 c19:  - x405 - x407 + x413 - x414 + x417 + x418 + x421 + x425 - x427 - x438
       + x449 - x450  = 0
 c20:  - x455 - x457 + x463 - x464 + x467 + x468 + x471 + x475 - x477 - x488
       + x499 - x500  = 0
 c21:  x4 - x9 + x12 + x14 - x18 - x19 + x23 - x24 + x28 + x33 + x45 - x46  = 1
 c22:  x54 - x59 + x62 + x64 - x68 - x69 + x73 - x74 + x78 + x83 + x95 - x96
        = 0
 c23:  x104 - x109 + x112 + x114 - x118 - x119 + x123 - x124 + x128 + x133
       + x145 - x146  = 0
 c24:  x154 - x159 + x162 + x164 - x168 - x169 + x173 - x174 + x178 + x183
       + x195 - x196  = -1
 c25:  x204 - x209 + x212 + x214 - x218 - x219 + x223 - x224 + x228 + x233
       + x245 - x246  = 0
 c26:  x254 - x259 + x262 + x264 - x268 - x269 + x273 - x274 + x278 + x283
       + x295 - x296  = 1
 c27:  x304 - x309 + x312 + x314 - x318 - x319 + x323 - x324 + x328 + x333
       + x345 - x346  = 0
 c28:  x354 - x359 + x362 + x364 - x368 - x369 + x373 - x374 + x378 + x383
       + x395 - x396  = 0
 c29:  x404 - x409 + x412 + x414 - x418 - x419 + x423 - x424 + x428 + x433
       + x445 - x446  = 0
 c30:  x454 - x459 + x462 + x464 - x468 - x469 + x473 - x474 + x478 + x483
       + x495 - x496  = 0
 c31:  x16 - x17 + x31 - x34 - x37 - x40 + x41 + x46 + x50  = 0
 c32:  x66 - x67 + x81 - x84 - x87 - x90 + x91 + x96 + x100  = 1
 c33:  x116 - x117 + x131 - x134 - x137 - x140 + x141 + x146 + x150  = 0
 c34:  x166 - x167 + x181 - x184 - x187 - x190 + x191 + x196 + x200  = 0
 c35:  x216 - x217 + x231 - x234 - x237 - x240 + x241 + x246 + x250  = 0
 c36:  x266 - x267 + x281 - x284 - x287 - x290 + x291 + x296 + x300  = 0
 c37:  x316 - x317 + x331 - x334 - x337 - x340 + x341 + x346 + x350  = 0
 c38:  x366 - x367 + x381 - x384 - x387 - x390 + x391 + x396 + x400  = -1
 c39:  x416 - x417 + x431 - x434 - x437 - x440 + x441 + x446 + x450  = 0
 c40:  x466 - x467 + x481 - x484 - x487 - x490 + x491 + x496 + x500  = 1
 c41:  - x1 - x11 + x15 + x27 + x29 - x33 - x35 + x40 - x41 + x42 - x44  = 0
 c42:  - x51 - x61 + x65 + x77 + x79 - x83 - x85 + x90 - x91 + x92 - x94  = 0
 c43:  - x101 - x111 + x115 + x127 + x129 - x133 - x135 + x140 - x141 + x142
       - x144  = 0
 c44:  - x151 - x161 + x165 + x177 + x179 - x183 - x185 + x190 - x191 + x192
       - x194  = 0
 c45:  - x201 - x211 + x215 + x227 + x229 - x233 - x235 + x240 - x241 + x242
       - x244  = 0
 c46:  - x251 - x261 + x265 + x277 + x279 - x283 - x285 + x290 - x291 + x292
       - x294  = 0
 c47:  - x301 - x311 + x315 + x327 + x329 - x333 - x335 + x340 - x341 + x342
       - x344  = 1
 c48:  - x351 - x361 + x365 + x377 + x379 - x383 - x385 + x390 - x391 + x392
       - x394  = 0
 c49:  - x401 - x411 + x415 + x427 + x429 - x433 - x435 + x440 - x441 + x442
       - x444  = 0
 c50:  - x451 - x461 + x465 + x477 + x479 - x483 - x485 + x490 - x491 + x492
       - x494  = 0
 c51:  x1 - x3 + x5 - x10 + x19 + x20 + x22 - x23 + x34 + x36 - x43  = 0
 c52:  x51 - x53 + x55 - x60 + x69 + x70 + x72 - x73 + x84 + x86 - x93  = 0
 c53:  x101 - x103 + x105 - x110 + x119 + x120 + x122 - x123 + x134 + x136
       - x143  = 1
 c54:  x151 - x153 + x155 - x160 + x169 + x170 + x172 - x173 + x184 + x186
       - x193  = 1
 c55:  x201 - x203 + x205 - x210 + x219 + x220 + x222 - x223 + x234 + x236
       - x243  = 0
 c56:  x251 - x253 + x255 - x260 + x269 + x270 + x272 - x273 + x284 + x286
       - x293  = 0
 c57:  x301 - x303 + x305 - x310 + x319 + x320 + x322 - x323 + x334 + x336
       - x343  = 0
 c58:  x351 - x353 + x355 - x360 + x369 + x370 + x372 - x373 + x384 + x386
       - x393  = 0
 c59:  x401 - x403 + x405 - x410 + x419 + x420 + x422 - x423 + x434 + x436
       - x443  = 1
 c60:  x451 - x453 + x455 - x460 + x469 + x470 + x472 - x473 + x484 + x486
       - x493  = 0
 c61:  x2 - x6 + x11 - x15 + x24 - x25 + x26 - x30 - x31 + x32 - x39 - x45  = 0
 c62:  x52 - x56 + x61 - x65 + x74 - x75 + x76 - x80 - x81 + x82 - x89 - x95
        = -1
 c63:  x102 - x106 + x111 - x115 + x124 - x125 + x126 - x130 - x131 + x132
       - x139 - x145  = 0
 c64:  x152 - x156 + x161 - x165 + x174 - x175 + x176 - x180 - x181 + x182
       - x189 - x195  = 0
 c65:  x202 - x206 + x211 - x215 + x224 - x225 + x226 - x230 - x231 + x232
       - x239 - x245  = 0
 c66:  x252 - x256 + x261 - x265 + x274 - x275 + x276 - x280 - x281 + x282
       - x289 - x295  = 0
 c67:  x302 - x306 + x311 - x315 + x324 - x325 + x326 - x330 - x331 + x332
       - x339 - x345  = 0
 c68:  x352 - x356 + x361 - x365 + x374 - x375 + x376 - x380 - x381 + x382
       - x389 - x395  = 1
 c69:  x402 - x406 + x411 - x415 + x424 - x425 + x426 - x430 - x431 + x432
       - x439 - x445  = 0
 c70:  x452 - x456 + x461 - x465 + x474 - x475 + x476 - x480 - x481 + x482
       - x489 - x495  = -1
 c71:  - x4 + x7 - x8 + x10 - x16 - x20 - x21 - x26 + x35 + x39  = 0
 c72:  - x54 + x57 - x58 + x60 - x66 - x70 - x71 - x76 + x85 + x89  = 0
 c73:  - x104 + x107 - x108 + x110 - x116 - x120 - x121 - x126 + x135 + x139
        = 0
 c74:  - x154 + x157 - x158 + x160 - x166 - x170 - x171 - x176 + x185 + x189
        = 0
 c75:  - x204 + x207 - x208 + x210 - x216 - x220 - x221 - x226 + x235 + x239
        = 0
 c76:  - x254 + x257 - x258 + x260 - x266 - x270 - x271 - x276 + x285 + x289
        = 0
 c77:  - x304 + x307 - x308 + x310 - x316 - x320 - x321 - x326 + x335 + x339
        = 0
 c78:  - x354 + x357 - x358 + x360 - x366 - x370 - x371 - x376 + x385 + x389
        = 0
 c79:  - x404 + x407 - x408 + x410 - x416 - x420 - x421 - x426 + x435 + x439
        = 0
 c80:  - x454 + x457 - x458 + x460 - x466 - x470 - x471 - x476 + x485 + x489
        = 0
 c81:  x3 + x8 - x12 + x30 - x36 - x47 + x48 - x49  = 0
 c82:  x53 + x58 - x62 + x80 - x86 - x97 + x98 - x99  = 0
 c83:  x103 + x108 - x112 + x130 - x136 - x147 + x148 - x149  = -1
 c84:  x153 + x158 - x162 + x180 - x186 - x197 + x198 - x199  = 0
 c85:  x203 + x208 - x212 + x230 - x236 - x247 + x248 - x249  = 1
 c86:  x253 + x258 - x262 + x280 - x286 - x297 + x298 - x299  = -1
 c87:  x303 + x308 - x312 + x330 - x336 - x347 + x348 - x349  = 0
 c88:  x353 + x358 - x362 + x380 - x386 - x397 + x398 - x399  = 0
 c89:  x403 + x408 - x412 + x430 - x436 - x447 + x448 - x449  = 0
 c90:  x453 + x458 - x462 + x480 - x486 - x497 + x498 - x499  = 0
 c91:  x9 - x32 + x37 + x38 - x42 + x43 + x47  = 0
 c92:  x59 - x82 + x87 + x88 - x92 + x93 + x97  = 0
 c93:  x109 - x132 + x137 + x138 - x142 + x143 + x147  = 0
 c94:  x159 - x182 + x187 + x188 - x192 + x193 + x197  = 0
 c95:  x209 - x232 + x237 + x238 - x242 + x243 + x247  = 0
 c96:  x259 - x282 + x287 + x288 - x292 + x293 + x297  = 0
 c97:  x309 - x332 + x337 + x338 - x342 + x343 + x347  = -1
 c98:  x359 - x382 + x387 + x388 - x392 + x393 + x397  = 0
 c99:  x409 - x432 + x437 + x438 - x442 + x443 + x447  = -1
 c100: x459 - x482 + x487 + x488 - x492 + x493 + x497  = 0
 c101: 4 x1 + 4 x51 + 4 x101 + 4 x151 + 4 x201 + 4 x251 + 4 x301 + 4 x351
       + 4 x401 + 4 x451 - 5 x501 <= 0
 c102: 4 x2 + 4 x52 + 4 x102 + 4 x152 + 4 x202 + 4 x252 + 4 x302 + 4 x352
       + 4 x402 + 4 x452 - 5 x502 <= 0
 c103: 4 x3 + 4 x53 + 4 x103 + 4 x153 + 4 x203 + 4 x253 + 4 x303 + 4 x353
       + 4 x403 + 4 x453 - 5 x503 <= 0
 c104: 4 x4 + 4 x54 + 4 x104 + 4 x154 + 4 x204 + 4 x254 + 4 x304 + 4 x354
       + 4 x404 + 4 x454 - 5 x504 <= 0
 c105: 4 x5 + 4 x55 + 4 x105 + 4 x155 + 4 x205 + 4 x255 + 4 x305 + 4 x355
       + 4 x405 + 4 x455 - 5 x505 <= 0
 c106: 4 x6 + 4 x56 + 4 x106 + 4 x156 + 4 x206 + 4 x256 + 4 x306 + 4 x356
       + 4 x406 + 4 x456 - 5 x506 <= 0
 c107: 4 x7 + 4 x57 + 4 x107 + 4 x157 + 4 x207 + 4 x257 + 4 x307 + 4 x357
       + 4 x407 + 4 x457 - 5 x507 <= 0
 c108: 4 x8 + 4 x58 + 4 x108 + 4 x158 + 4 x208 + 4 x258 + 4 x308 + 4 x358
       + 4 x408 + 4 x458 - 5 x508 <= 0
 c109: 4 x9 + 4 x59 + 4 x109 + 4 x159 + 4 x209 + 4 x259 + 4 x309 + 4 x359
       + 4 x409 + 4 x459 - 5 x509 <= 0
 c110: 4 x10 + 4 x60 + 4 x110 + 4 x160 + 4 x210 + 4 x260 + 4 x310 + 4 x360
       + 4 x410 + 4 x460 - 5 x510 <= 0
 c111: 4 x11 + 4 x61 + 4 x111 + 4 x161 + 4 x211 + 4 x261 + 4 x311 + 4 x361
       + 4 x411 + 4 x461 - 5 x511 <= 0
 c112: 4 x12 + 4 x62 + 4 x112 + 4 x162 + 4 x212 + 4 x262 + 4 x312 + 4 x362
       + 4 x412 + 4 x462 - 5 x512 <= 0
 c113: 4 x13 + 4 x63 + 4 x113 + 4 x163 + 4 x213 + 4 x263 + 4 x313 + 4 x363
       + 4 x413 + 4 x463 - 5 x513 <= 0
 c114: 4 x14 + 4 x64 + 4 x114 + 4 x164 + 4 x214 + 4 x264 + 4 x314 + 4 x364
       + 4 x414 + 4 x464 - 5 x514 <= 0
 c115: 4 x15 + 4 x65 + 4 x115 + 4 x165 + 4 x215 + 4 x265 + 4 x315 + 4 x365
       + 4 x415 + 4 x465 - 5 x515 <= 0
 c116: 4 x16 + 4 x66 + 4 x116 + 4 x166 + 4 x216 + 4 x266 + 4 x316 + 4 x366
       + 4 x416 + 4 x466 - 5 x516 <= 0
 c117: 4 x17 + 4 x67 + 4 x117 + 4 x167 + 4 x217 + 4 x267 + 4 x317 + 4 x367
       + 4 x417 + 4 x467 - 5 x517 <= 0
 c118: 4 x18 + 4 x68 + 4 x118 + 4 x168 + 4 x218 + 4 x268 + 4 x318 + 4 x368
       + 4 x418 + 4 x468 - 5 x518 <= 0
 c119: 4 x19 + 4 x69 + 4 x119 + 4 x169 + 4 x219 + 4 x269 + 4 x319 + 4 x369
       + 4 x419 + 4 x469 - 5 x519 <= 0
 c120: 4 x20 + 4 x70 + 4 x120 + 4 x170 + 4 x220 + 4 x270 + 4 x320 + 4 x370
       + 4 x420 + 4 x470 - 5 x520 <= 0
 c121: 4 x21 + 4 x71 + 4 x121 + 4 x171 + 4 x221 + 4 x271 + 4 x321 + 4 x371
       + 4 x421 + 4 x471 - 5 x521 <= 0
 c122: 4 x22 + 4 x72 + 4 x122 + 4 x172 + 4 x222 + 4 x272 + 4 x322 + 4 x372
       + 4 x422 + 4 x472 - 5 x522 <= 0
 c123: 4 x23 + 4 x73 + 4 x123 + 4 x173 + 4 x223 + 4 x273 + 4 x323 + 4 x373
       + 4 x423 + 4 x473 - 5 x523 <= 0
 c124: 4 x24 + 4 x74 + 4 x124 + 4 x174 + 4 x224 + 4 x274 + 4 x324 + 4 x374
       + 4 x424 + 4 x474 - 5 x524 <= 0
 c125: 4 x25 + 4 x75 + 4 x125 + 4 x175 + 4 x225 + 4 x275 + 4 x325 + 4 x375
       + 4 x425 + 4 x475 - 5 x525 <= 0
 c126: 4 x26 + 4 x76 + 4 x126 + 4 x176 + 4 x226 + 4 x276 + 4 x326 + 4 x376
       + 4 x426 + 4 x476 - 5 x526 <= 0
 c127: 4 x27 + 4 x77 + 4 x127 + 4 x177 + 4 x227 + 4 x277 + 4 x327 + 4 x377
       + 4 x427 + 4 x477 - 5 x527 <= 0
 c128: 4 x28 + 4 x78 + 4 x128 + 4 x178 + 4 x228 + 4 x278 + 4 x328 + 4 x378
       + 4 x428 + 4 x478 - 5 x528 <= 0
 c129: 4 x29 + 4 x79 + 4 x129 + 4 x179 + 4 x229 + 4 x279 + 4 x329 + 4 x379
       + 4 x429 + 4 x479 - 5 x529 <= 0
 c130: 4 x30 + 4 x80 + 4 x130 + 4 x180 + 4 x230 + 4 x280 + 4 x330 + 4 x380
       + 4 x430 + 4 x480 - 5 x530 <= 0
 c131: 4 x31 + 4 x81 + 4 x131 + 4 x181 + 4 x231 + 4 x281 + 4 x331 + 4 x381
       + 4 x431 + 4 x481 - 5 x531 <= 0
 c132: 4 x32 + 4 x82 + 4 x132 + 4 x182 + 4 x232 + 4 x282 + 4 x332 + 4 x382
       + 4 x432 + 4 x482 - 5 x532 <= 0
 c133: 4 x33 + 4 x83 + 4 x133 + 4 x183 + 4 x233 + 4 x283 + 4 x333 + 4 x383
       + 4 x433 + 4 x483 - 5 x533 <= 0
 c134: 4 x34 + 4 x84 + 4 x134 + 4 x184 + 4 x234 + 4 x284 + 4 x334 + 4 x384
       + 4 x434 + 4 x484 - 5 x534 <= 0
 c135: 4 x35 + 4 x85 + 4 x135 + 4 x185 + 4 x235 + 4 x285 + 4 x335 + 4 x385
       + 4 x435 + 4 x485 - 5 x535 <= 0
 c136: 4 x36 + 4 x86 + 4 x136 + 4 x186 + 4 x236 + 4 x286 + 4 x336 + 4 x386
       + 4 x436 + 4 x486 - 5 x536 <= 0
 c137: 4 x37 + 4 x87 + 4 x137 + 4 x187 + 4 x237 + 4 x287 + 4 x337 + 4 x387
       + 4 x437 + 4 x487 - 5 x537 <= 0
 c138: 4 x38 + 4 x88 + 4 x138 + 4 x188 + 4 x238 + 4 x288 + 4 x338 + 4 x388
       + 4 x438 + 4 x488 - 5 x538 <= 0
 c139: 4 x39 + 4 x89 + 4 x139 + 4 x189 + 4 x239 + 4 x289 + 4 x339 + 4 x389
       + 4 x439 + 4 x489 - 5 x539 <= 0
 c140: 4 x40 + 4 x90 + 4 x140 + 4 x190 + 4 x240 + 4 x290 + 4 x340 + 4 x390
       + 4 x440 + 4 x490 - 5 x540 <= 0
 c141: 4 x41 + 4 x91 + 4 x141 + 4 x191 + 4 x241 + 4 x291 + 4 x341 + 4 x391
       + 4 x441 + 4 x491 - 5 x541 <= 0
 c142: 4 x42 + 4 x92 + 4 x142 + 4 x192 + 4 x242 + 4 x292 + 4 x342 + 4 x392
       + 4 x442 + 4 x492 - 5 x542 <= 0
 c143: 4 x43 + 4 x93 + 4 x143 + 4 x193 + 4 x243 + 4 x293 + 4 x343 + 4 x393
       + 4 x443 + 4 x493 - 5 x543 <= 0
 c144: 4 x44 + 4 x94 + 4 x144 + 4 x194 + 4 x244 + 4 x294 + 4 x344 + 4 x394
       + 4 x444 + 4 x494 - 5 x544 <= 0
 c145: 4 x45 + 4 x95 + 4 x145 + 4 x195 + 4 x245 + 4 x295 + 4 x345 + 4 x395
       + 4 x445 + 4 x495 - 5 x545 <= 0
 c146: 4 x46 + 4 x96 + 4 x146 + 4 x196 + 4 x246 + 4 x296 + 4 x346 + 4 x396
       + 4 x446 + 4 x496 - 5 x546 <= 0
 c147: 4 x47 + 4 x97 + 4 x147 + 4 x197 + 4 x247 + 4 x297 + 4 x347 + 4 x397
       + 4 x447 + 4 x497 - 5 x547 <= 0
 c148: 4 x48 + 4 x98 + 4 x148 + 4 x198 + 4 x248 + 4 x298 + 4 x348 + 4 x398
       + 4 x448 + 4 x498 - 5 x548 <= 0
 c149: 4 x49 + 4 x99 + 4 x149 + 4 x199 + 4 x249 + 4 x299 + 4 x349 + 4 x399
       + 4 x449 + 4 x499 - 5 x549 <= 0
 c150: 4 x50 + 4 x100 + 4 x150 + 4 x200 + 4 x250 + 4 x300 + 4 x350 + 4 x400
       + 4 x450 + 4 x500 - 5 x550 <= 0
Bounds
 0 <= x1 <= 1
 0 <= x2 <= 1
 0 <= x3 <= 1
 0 <= x4 <= 1
 0 <= x5 <= 1
 0 <= x6 <= 1
 0 <= x7 <= 1
 0 <= x8 <= 1
 0 <= x9 <= 1
 0 <= x10 <= 1
 0 <= x11 <= 1
 0 <= x12 <= 1
 0 <= x13 <= 1
 0 <= x14 <= 1
 0 <= x15 <= 1
 0 <= x16 <= 1
 0 <= x17 <= 1
 0 <= x18 <= 1
 0 <= x19 <= 1
 0 <= x20 <= 1
 0 <= x21 <= 1
 0 <= x22 <= 1
 0 <= x23 <= 1
 0 <= x24 <= 1
 0 <= x25 <= 1
 0 <= x26 <= 1
 0 <= x27 <= 1
 0 <= x28 <= 1
 0 <= x29 <= 1
 0 <= x30 <= 1
 0 <= x31 <= 1
 0 <= x32 <= 1
 0 <= x33 <= 1
 0 <= x34 <= 1
 0 <= x35 <= 1
 0 <= x36 <= 1
 0 <= x37 <= 1
 0 <= x38 <= 1
 0 <= x39 <= 1
 0 <= x40 <= 1
 0 <= x41 <= 1
 0 <= x42 <= 1
 0 <= x43 <= 1
 0 <= x44 <= 1
 0 <= x45 <= 1
 0 <= x46 <= 1
 0 <= x47 <= 1
 0 <= x48 <= 1
 0 <= x49 <= 1
 0 <= x50 <= 1
 0 <= x51 <= 1
 0 <= x52 <= 1
 0 <= x53 <= 1
 0 <= x54 <= 1
 0 <= x55 <= 1
 0 <= x56 <= 1
 0 <= x57 <= 1
 0 <= x58 <= 1
 0 <= x59 <= 1
 0 <= x60 <= 1
 0 <= x61 <= 1
 0 <= x62 <= 1
 0 <= x63 <= 1
 0 <= x64 <= 1
 0 <= x65 <= 1
 0 <= x66 <= 1
 0 <= x67 <= 1
 0 <= x68 <= 1
 0 <= x69 <= 1
 0 <= x70 <= 1
 0 <= x71 <= 1
 0 <= x72 <= 1
 0 <= x73 <= 1
 0 <= x74 <= 1
 0 <= x75 <= 1
 0 <= x76 <= 1
 0 <= x77 <= 1
 0 <= x78 <= 1
 0 <= x79 <= 1
 0 <= x80 <= 1
 0 <= x81 <= 1
 0 <= x82 <= 1
 0 <= x83 <= 1
 0 <= x84 <= 1
 0 <= x85 <= 1
 0 <= x86 <= 1
 0 <= x87 <= 1
 0 <= x88 <= 1
 0 <= x89 <= 1
 0 <= x90 <= 1
 0 <= x91 <= 1
 0 <= x92 <= 1
 0 <= x93 <= 1
 0 <= x94 <= 1
 0 <= x95 <= 1
 0 <= x96 <= 1
 0 <= x97 <= 1
 0 <= x98 <= 1
 0 <= x99 <= 1
 0 <= x100 <= 1
 0 <= x101 <= 1
 0 <= x102 <= 1
 0 <= x103 <= 1
 0 <= x104 <= 1
 0 <= x105 <= 1
 0 <= x106 <= 1
 0 <= x107 <= 1
 0 <= x108 <= 1
 0 <= x109 <= 1
 0 <= x110 <= 1
 0 <= x111 <= 1
 0 <= x112 <= 1
 0 <= x113 <= 1
 0 <= x114 <= 1
 0 <= x115 <= 1
 0 <= x116 <= 1
 0 <= x117 <= 1
 0 <= x118 <= 1
 0 <= x119 <= 1
 0 <= x120 <= 1
 0 <= x121 <= 1
 0 <= x122 <= 1
 0 <= x123 <= 1
 0 <= x124 <= 1
 0 <= x125 <= 1
 0 <= x126 <= 1
 0 <= x127 <= 1
 0 <= x128 <= 1
 0 <= x129 <= 1
 0 <= x130 <= 1
 0 <= x131 <= 1
 0 <= x132 <= 1
 0 <= x133 <= 1
 0 <= x134 <= 1
 0 <= x135 <= 1
 0 <= x136 <= 1
 0 <= x137 <= 1
 0 <= x138 <= 1
 0 <= x139 <= 1
 0 <= x140 <= 1
 0 <= x141 <= 1
 0 <= x142 <= 1
 0 <= x143 <= 1
 0 <= x144 <= 1
 0 <= x145 <= 1
 0 <= x146 <= 1
 0 <= x147 <= 1
 0 <= x148 <= 1
 0 <= x149 <= 1
 0 <= x150 <= 1
 0 <= x151 <= 1
 0 <= x152 <= 1
 0 <= x153 <= 1
 0 <= x154 <= 1
 0 <= x155 <= 1
 0 <= x156 <= 1
 0 <= x157 <= 1
 0 <= x158 <= 1
 0 <= x159 <= 1
 0 <= x160 <= 1
 0 <= x161 <= 1
 0 <= x162 <= 1
 0 <= x163 <= 1
 0 <= x164 <= 1
 0 <= x165 <= 1
 0 <= x166 <= 1
 0 <= x167 <= 1
 0 <= x168 <= 1
 0 <= x169 <= 1
 0 <= x170 <= 1
 0 <= x171 <= 1
 0 <= x172 <= 1
 0 <= x173 <= 1
 0 <= x174 <= 1
 0 <= x175 <= 1
 0 <= x176 <= 1
 0 <= x177 <= 1
 0 <= x178 <= 1
 0 <= x179 <= 1
 0 <= x180 <= 1
 0 <= x181 <= 1
 0 <= x182 <= 1
 0 <= x183 <= 1
 0 <= x184 <= 1
 0 <= x185 <= 1
 0 <= x186 <= 1
 0 <= x187 <= 1
 0 <= x188 <= 1
 0 <= x189 <= 1
 0 <= x190 <= 1
 0 <= x191 <= 1
 0 <= x192 <= 1
 0 <= x193 <= 1
 0 <= x194 <= 1
 0 <= x195 <= 1
 0 <= x196 <= 1
 0 <= x197 <= 1
 0 <= x198 <= 1
 0 <= x199 <= 1
 0 <= x200 <= 1
 0 <= x201 <= 1
 0 <= x202 <= 1
 0 <= x203 <= 1
 0 <= x204 <= 1
 0 <= x205 <= 1
 0 <= x206 <= 1
 0 <= x207 <= 1
 0 <= x208 <= 1
 0 <= x209 <= 1
 0 <= x210 <= 1
 0 <= x211 <= 1
 0 <= x212 <= 1
 0 <= x213 <= 1
 0 <= x214 <= 1
 0 <= x215 <= 1
 0 <= x216 <= 1
 0 <= x217 <= 1
 0 <= x218 <= 1
 0 <= x219 <= 1
 0 <= x220 <= 1
 0 <= x221 <= 1
 0 <= x222 <= 1
 0 <= x223 <= 1
 0 <= x224 <= 1
 0 <= x225 <= 1
 0 <= x226 <= 1
 0 <= x227 <= 1
 0 <= x228 <= 1
 0 <= x229 <= 1
 0 <= x230 <= 1
 0 <= x231 <= 1
 0 <= x232 <= 1
 0 <= x233 <= 1
 0 <= x234 <= 1
 0 <= x235 <= 1
 0 <= x236 <= 1
 0 <= x237 <= 1
 0 <= x238 <= 1
 0 <= x239 <= 1
 0 <= x240 <= 1
 0 <= x241 <= 1
 0 <= x242 <= 1
 0 <= x243 <= 1
 0 <= x244 <= 1
 0 <= x245 <= 1
 0 <= x246 <= 1
 0 <= x247 <= 1
 0 <= x248 <= 1
 0 <= x249 <= 1
 0 <= x250 <= 1
 0 <= x251 <= 1
 0 <= x252 <= 1
 0 <= x253 <= 1
 0 <= x254 <= 1
 0 <= x255 <= 1
 0 <= x256 <= 1
 0 <= x257 <= 1
 0 <= x258 <= 1
 0 <= x259 <= 1
 0 <= x260 <= 1
 0 <= x261 <= 1
 0 <= x262 <= 1
 0 <= x263 <= 1
 0 <= x264 <= 1
 0 <= x265 <= 1
 0 <= x266 <= 1
 0 <= x267 <= 1
 0 <= x268 <= 1
 0 <= x269 <= 1
 0 <= x270 <= 1
 0 <= x271 <= 1
 0 <= x272 <= 1
 0 <= x273 <= 1
 0 <= x274 <= 1
 0 <= x275 <= 1
 0 <= x276 <= 1
 0 <= x277 <= 1
 0 <= x278 <= 1
 0 <= x279 <= 1
 0 <= x280 <= 1
 0 <= x281 <= 1
 0 <= x282 <= 1
 0 <= x283 <= 1
 0 <= x284 <= 1
 0 <= x285 <= 1
 0 <= x286 <= 1
 0 <= x287 <= 1
 0 <= x288 <= 1
 0 <= x289 <= 1
 0 <= x290 <= 1
 0 <= x291 <= 1
 0 <= x292 <= 1
 0 <= x293 <= 1
 0 <= x294 <= 1
 0 <= x295 <= 1
 0 <= x296 <= 1
 0 <= x297 <= 1
 0 <= x298 <= 1
 0 <= x299 <= 1
 0 <= x300 <= 1
 0 <= x301 <= 1
 0 <= x302 <= 1
 0 <= x303 <= 1
 0 <= x304 <= 1
 0 <= x305 <= 1
 0 <= x306 <= 1
 0 <= x307 <= 1
 0 <= x308 <= 1
 0 <= x309 <= 1
 0 <= x310 <= 1
 0 <= x311 <= 1
 0 <= x312 <= 1
 0 <= x313 <= 1
 0 <= x314 <= 1
 0 <= x315 <= 1
 0 <= x316 <= 1
 0 <= x317 <= 1
 0 <= x318 <= 1
 0 <= x319 <= 1
 0 <= x320 <= 1
 0 <= x321 <= 1
 0 <= x322 <= 1
 0 <= x323 <= 1
 0 <= x324 <= 1
 0 <= x325 <= 1
 0 <= x326 <= 1
 0 <= x327 <= 1
 0 <= x328 <= 1
 0 <= x329 <= 1
 0 <= x330 <= 1
 0 <= x331 <= 1
 0 <= x332 <= 1
 0 <= x333 <= 1
 0 <= x334 <= 1
 0 <= x335 <= 1
 0 <= x336 <= 1
 0 <= x337 <= 1
 0 <= x338 <= 1
 0 <= x339 <= 1
 0 <= x340 <= 1
 0 <= x341 <= 1
 0 <= x342 <= 1
 0 <= x343 <= 1
 0 <= x344 <= 1
 0 <= x345 <= 1
 0 <= x346 <= 1
 0 <= x347 <= 1
 0 <= x348 <= 1
 0 <= x349 <= 1
 0 <= x350 <= 1
 0 <= x351 <= 1
 0 <= x352 <= 1
 0 <= x353 <= 1
 0 <= x354 <= 1
 0 <= x355 <= 1
 0 <= x356 <= 1
 0 <= x357 <= 1
 0 <= x358 <= 1
 0 <= x359 <= 1
 0 <= x360 <= 1
 0 <= x361 <= 1
 0 <= x362 <= 1
 0 <= x363 <= 1
 0 <= x364 <= 1
 0 <= x365 <= 1
 0 <= x366 <= 1
 0 <= x367 <= 1
 0 <= x368 <= 1
 0 <= x369 <= 1
 0 <= x370 <= 1
 0 <= x371 <= 1
 0 <= x372 <= 1
 0 <= x373 <= 1
 0 <= x374 <= 1
 0 <= x375 <= 1
 0 <= x376 <= 1
 0 <= x377 <= 1
 0 <= x378 <= 1
 0 <= x379 <= 1
 0 <= x380 <= 1
 0 <= x381 <= 1
 0 <= x382 <= 1
 0 <= x383 <= 1
 0 <= x384 <= 1
 0 <= x385 <= 1
 0 <= x386 <= 1
 0 <= x387 <= 1
 0 <= x388 <= 1
 0 <= x389 <= 1
 0 <= x390 <= 1
 0 <= x391 <= 1
 0 <= x392 <= 1
 0 <= x393 <= 1
 0 <= x394 <= 1
 0 <= x395 <= 1
 0 <= x396 <= 1
 0 <= x397 <= 1
 0 <= x398 <= 1
 0 <= x399 <= 1
 0 <= x400 <= 1
 0 <= x401 <= 1
 0 <= x402 <= 1
 0 <= x403 <= 1
 0 <= x404 <= 1
 0 <= x405 <= 1
 0 <= x406 <= 1
 0 <= x407 <= 1
 0 <= x408 <= 1
 0 <= x409 <= 1
 0 <= x410 <= 1
 0 <= x411 <= 1
 0 <= x412 <= 1
 0 <= x413 <= 1
 0 <= x414 <= 1
 0 <= x415 <= 1
 0 <= x416 <= 1
 0 <= x417 <= 1
 0 <= x418 <= 1
 0 <= x419 <= 1
 0 <= x420 <= 1
 0 <= x421 <= 1
 0 <= x422 <= 1
 0 <= x423 <= 1
 0 <= x424 <= 1
 0 <= x425 <= 1
 0 <= x426 <= 1
 0 <= x427 <= 1
 0 <= x428 <= 1
 0 <= x429 <= 1
 0 <= x430 <= 1
 0 <= x431 <= 1
 0 <= x432 <= 1
 0 <= x433 <= 1
 0 <= x434 <= 1
 0 <= x435 <= 1
 0 <= x436 <= 1
 0 <= x437 <= 1
 0 <= x438 <= 1
 0 <= x439 <= 1
 0 <= x440 <= 1
 0 <= x441 <= 1
 0 <= x442 <= 1
 0 <= x443 <= 1
 0 <= x444 <= 1
 0 <= x445 <= 1
 0 <= x446 <= 1
 0 <= x447 <= 1
 0 <= x448 <= 1
 0 <= x449 <= 1
 0 <= x450 <= 1
 0 <= x451 <= 1
 0 <= x452 <= 1
 0 <= x453 <= 1
 0 <= x454 <= 1
 0 <= x455 <= 1
 0 <= x456 <= 1
 0 <= x457 <= 1
 0 <= x458 <= 1
 0 <= x459 <= 1
 0 <= x460 <= 1
 0 <= x461 <= 1
 0 <= x462 <= 1
 0 <= x463 <= 1
 0 <= x464 <= 1
 0 <= x465 <= 1
 0 <= x466 <= 1
 0 <= x467 <= 1
 0 <= x468 <= 1
 0 <= x469 <= 1
 0 <= x470 <= 1
 0 <= x471 <= 1
 0 <= x472 <= 1
 0 <= x473 <= 1
 0 <= x474 <= 1
 0 <= x475 <= 1
 0 <= x476 <= 1
 0 <= x477 <= 1
 0 <= x478 <= 1
 0 <= x479 <= 1
 0 <= x480 <= 1
 0 <= x481 <= 1
 0 <= x482 <= 1
 0 <= x483 <= 1
 0 <= x484 <= 1
 0 <= x485 <= 1
 0 <= x486 <= 1
 0 <= x487 <= 1
 0 <= x488 <= 1
 0 <= x489 <= 1
 0 <= x490 <= 1
 0 <= x491 <= 1
 0 <= x492 <= 1
 0 <= x493 <= 1
 0 <= x494 <= 1
 0 <= x495 <= 1
 0 <= x496 <= 1
 0 <= x497 <= 1
 0 <= x498 <= 1
 0 <= x499 <= 1
 0 <= x500 <= 1
 0 <= x501 <= 1
 0 <= x502 <= 1
 0 <= x503 <= 1
 0 <= x504 <= 1
 0 <= x505 <= 1
 0 <= x506 <= 1
 0 <= x507 <= 1
 0 <= x508 <= 1
 0 <= x509 <= 1
 0 <= x510 <= 1
 0 <= x511 <= 1
 0 <= x512 <= 1
 0 <= x513 <= 1
 0 <= x514 <= 1
 0 <= x515 <= 1
 0 <= x516 <= 1
 0 <= x517 <= 1
 0 <= x518 <= 1
 0 <= x519 <= 1
 0 <= x520 <= 1
 0 <= x521 <= 1
 0 <= x522 <= 1
 0 <= x523 <= 1
 0 <= x524 <= 1
 0 <= x525 <= 1
 0 <= x526 <= 1
 0 <= x527 <= 1
 0 <= x528 <= 1
 0 <= x529 <= 1
 0 <= x530 <= 1
 0 <= x531 <= 1
 0 <= x532 <= 1
 0 <= x533 <= 1
 0 <= x534 <= 1
 0 <= x535 <= 1
 0 <= x536 <= 1
 0 <= x537 <= 1
 0 <= x538 <= 1
 0 <= x539 <= 1
 0 <= x540 <= 1
 0 <= x541 <= 1
 0 <= x542 <= 1
 0 <= x543 <= 1
 0 <= x544 <= 1
 0 <= x545 <= 1
 0 <= x546 <= 1
 0 <= x547 <= 1
 0 <= x548 <= 1
 0 <= x549 <= 1
 0 <= x550 <= 1
Binaries
 x501  x502  x503  x504  x505  x506  x507  x508  x509  x510  x511  x512  x513 
 x514  x515  x516  x517  x518  x519  x520  x521  x522  x523  x524  x525  x526 
 x527  x528  x529  x530  x531  x532  x533  x534  x535  x536  x537  x538  x539 
 x540  x541  x542  x543  x544  x545  x546  x547  x548  x549  x550 
End
